evm/ejemplos_dzn/EthPriceMintModule_run_code_of_0_block_41_0_input.dzn
TERM = { '.', s0, s8, s9, s11};
null = '.';
s = 6;
n = 3;
min = 5;
N0 = 0;
ZEROARYOP = {};
zeroout = [];
zerogas = [];
zerosz =  [];
zerolb =  [];
zeroub =  [];
N1 = 1;
UNARYOP = { MLOAD_0 };
unin = [ s11 ];
unout = [ s8 ];
ungas = [ 3 ];
unsz = [ 1 ];
unlb = [ 1 ];
unub = [ 6 ];
N2 = 1;
BINARYOP = { SUB_0 };
binin1 = [s0 ];
binin2 = [s8 ];
binout = [s9 ];
bincomm = [false ];
bingas = [3 ];
binsz = [1 ];
binlb = [ 1 ];
binub = [ 6 ];
NA = 0;
ASSOCIATIVEADDOP = {};
naddin =  [];
addin =  [||];
addout = [];
addcomm = [];
addgas = [];
addsz =  [];
addlb =  [];
addub =  [];
NPUSH = 1;
PUSHOP = { PUSH_0 };
pushout = [ s11 ];
pushgas = [ 3 ];
pushsz = [ 2 ];
pushlb = [ 1 ];
pushub = [ 6 ];
NSTORE = 0;
STOROP = {};
storin1 =  [];
storin2 =  [];
storlb =  [];
storub =  [];
storgas = [];
storsz = [];
DUP_ENUM = { DUP1, DUP2};
SWAP_ENUM = { SWAP1, SWAP2};
startstack = [ s0, null, null ];
endstack = [ s8, s9, null ];
m_dep_n = 0;
memory_dependences = [| |];
s_dep_n = 0;
store_dependences = [| |];
lib = false;
nlib = 0;
lib_elem = [| |];
lib_dis = [];
