evm/ejemplos_results/EthPriceMintModule_run_code_of_0_block_41_0_input.txt
value = 6;
fgas = [3, 3, 3, 3, 3, 3];
fsize = [2, 1, 1, 1, 1, 1];
states = 
[|  s0, '.', '.'
 | s11,  s0, '.'
 |  s8,  s0, '.'
 |  s8,  s8,  s0
 |  s0,  s8,  s8
 |  s9,  s8, '.'
 |  s8,  s9, '.'
 |];
program = [P(PUSH_0), U(MLOAD_0), D(DUP1), SW(SWAP2), BI(SUB_0), SW(SWAP1)];
% time elapsed: 0.96 s
----------
==========
% time elapsed: 0.96 s
% [value > 5]
